23
3 54 59 18 
3 5 14 49 
3 37 36 21 
3 57 44 34 
3 60 53 30 
3 58 20 29 
3 50 48 38 
3 8 43 22 
2 35 27 
2 28 52 
2 2 6 
2 19 11 
3 41 55 24 
2 13 47 
3 42 46 40 
3 3 9 39 
2 32 51 
2 56 1 
3 45 4 25 
3 33 23 10 
3 17 12 26 
2 16 15 
2 7 31 
